Gurobi Optimizer version 9.1.2 build v9.1.2rc0 (linux64)
Thread count: 36 physical cores, 72 logical processors, using up to 32 threads
Optimize a model with 12 rows, 57 columns and 590 nonzeros
Model fingerprint: 0xf32eec78
Model has 47 quadratic constraints
Coefficient statistics:
  Matrix range     [2e-05, 3e+00]
  QMatrix range    [1e+00, 1e+00]
  QLMatrix range   [1e+00, 1e+00]
  Objective range  [8e-03, 7e-01]
  Bounds range     [1e+00, 1e+00]
  RHS range        [1e+00, 1e+00]
Presolve removed 9 rows and 0 columns

Continuous model is non-convex -- solving as a MIP.

Presolve removed 9 rows and 0 columns
Presolve time: 0.00s
Presolved: 189 rows, 57 columns, 443 nonzeros
Presolved model has 47 bilinear constraint(s)
Variable types: 57 continuous, 0 integer (0 binary)

Root relaxation: objective -1.743721e+00, 44 iterations, 0.00 seconds

    Nodes    |    Current Node    |     Objective Bounds      |     Work
 Expl Unexpl |  Obj  Depth IntInf | Incumbent    BestBd   Gap | It/Node Time

     0     0   -1.74372    0   38          -   -1.74372      -     -    0s
H    0     0                       0.6147548   -1.74372   384%     -    0s
     0     0   -1.64739    0    1    0.61475   -1.64739   368%     -    0s
H    0     0                      -1.6450460   -1.64739  0.14%     -    0s
     0     0     cutoff    0        -1.64505   -1.64505  0.00%     -    0s

Cutting planes:
  RLT: 25
  BQP: 3

Explored 1 nodes (76 simplex iterations) in 0.01 seconds
Thread count was 32 (of 72 available processors)

Solution count 2: -1.64505 0.614755 
No other solutions better than -1.64505

Optimal solution found (tolerance 1.00e-04)
Best objective -1.645045978473e+00, best bound -1.645045978473e+00, gap 0.0000%

User-callback calls 78, time in user-callback 0.00 sec
Gurobi Optimizer version 9.1.2 build v9.1.2rc0 (linux64)
Thread count: 36 physical cores, 72 logical processors, using up to 32 threads
Optimize a model with 60 rows, 300 columns and 15500 nonzeros
Model fingerprint: 0x1a111248
Model has 250 quadratic constraints
Coefficient statistics:
  Matrix range     [1e-06, 4e+00]
  QMatrix range    [1e+00, 1e+00]
  QLMatrix range   [1e+00, 1e+00]
  Objective range  [4e-04, 1e+00]
  Bounds range     [1e+00, 1e+00]
  RHS range        [1e+00, 1e+00]
Presolve removed 11 rows and 0 columns

Continuous model is non-convex -- solving as a MIP.

Presolve removed 11 rows and 0 columns
Presolve time: 0.01s
Presolved: 1049 rows, 300 columns, 14161 nonzeros
Presolved model has 250 bilinear constraint(s)
Variable types: 300 continuous, 0 integer (0 binary)

Root relaxation: objective -2.075357e+01, 383 iterations, 0.02 seconds

    Nodes    |    Current Node    |     Objective Bounds      |     Work
 Expl Unexpl |  Obj  Depth IntInf | Incumbent    BestBd   Gap | It/Node Time

     0     0  -20.75357    0  208          -  -20.75357      -     -    0s
     0     0  -17.93062    0  219          -  -17.93062      -     -    0s
     0     0  -17.51062    0  211          -  -17.51062      -     -    0s
     0     0  -17.47797    0  211          -  -17.47797      -     -    0s
     0     0  -17.42675    0  195          -  -17.42675      -     -    0s
     0     0  -17.42262    0  204          -  -17.42262      -     -    0s
     0     0  -17.42134    0  161          -  -17.42134      -     -    0s
     0     0  -17.42071    0  211          -  -17.42071      -     -    0s
     0     0  -17.42070    0  195          -  -17.42070      -     -    0s
     0     0  -17.42070    0  195          -  -17.42070      -     -    0s
H    0     0                     -11.6715656  -17.42070  49.3%     -    0s
     0     2  -17.42070    0  195  -11.67157  -17.42070  49.3%     -    0s
* 1784  1777              92     -12.6341757  -16.22642  28.4%  68.0    2s
* 2001  1851             117     -12.8175759  -16.22642  26.6%  64.4    2s
* 2109  1859             122     -13.5087426  -16.22642  20.1%  63.3    2s
* 2365  1867              56     -14.8566061  -16.22642  9.22%  62.0    2s
* 3949  1735              52     -14.8566930  -15.79768  6.33%  68.7    3s
* 3950  1735              51     -14.8566934  -15.79768  6.33%  68.6    3s
* 4042  1752              65     -14.8569638  -15.79768  6.33%  68.5    3s
* 4044  1752              66     -14.8569784  -15.79768  6.33%  68.4    3s
* 4045  1752              66     -14.8569798  -15.79768  6.33%  68.4    3s
* 4046  1752              64     -14.8569926  -15.79768  6.33%  68.4    3s
* 4260  1783              71     -14.8633722  -15.79768  6.29%  68.0    3s
* 4263  1783              73     -14.8636155  -15.79768  6.28%  68.0    3s
* 4265  1783              74     -14.8636276  -15.79768  6.28%  67.9    3s
* 4266  1783              74     -14.8636276  -15.79768  6.28%  67.9    3s
* 4269  1783              74     -14.8636371  -15.79768  6.28%  67.9    3s
* 4272  1783              74     -14.8636379  -15.79768  6.28%  67.8    3s
* 4411  1793              94     -14.8663872  -15.76940  6.07%  67.3    3s
* 4413  1793              93     -14.8665145  -15.76940  6.07%  67.3    3s
* 4566  1793              71     -14.8847218  -15.76940  5.94%  67.3    3s
* 4767  1732              70     -14.9030839  -15.76940  5.81%  66.9    4s
* 4795  1732              64     -14.9031149  -15.76940  5.81%  66.7    4s
* 4797  1732              65     -14.9031152  -15.76940  5.81%  66.7    4s
* 6052  1761              51     -14.9041518  -15.47831  3.85%  69.0    4s
* 6055  1761              53     -14.9041545  -15.47831  3.85%  68.9    4s
  6185  1761     cutoff   18       -14.90415  -15.47831  3.85%  69.1    5s
* 6516  1775              63     -14.9041798  -15.47831  3.85%  68.8    5s
* 6518  1775              64     -14.9041823  -15.47831  3.85%  68.7    5s
* 6519  1775              64     -14.9041824  -15.47831  3.85%  68.7    5s
* 6521  1775              63     -14.9041867  -15.47831  3.85%  68.7    5s
* 6523  1775              64     -14.9041868  -15.47831  3.85%  68.7    5s
* 6547  1775              69     -14.9041925  -15.47831  3.85%  68.6    5s
* 6548  1775              69     -14.9041934  -15.47831  3.85%  68.6    5s
* 6549  1775              67     -14.9042411  -15.47831  3.85%  68.6    5s
* 6583  1775              91     -14.9044286  -15.47831  3.85%  68.4    5s
* 6585  1775              90     -14.9044392  -15.47831  3.85%  68.4    5s
* 6596  1775              90     -14.9044396  -15.47831  3.85%  68.3    5s
* 6839  1764              46     -14.9044775  -15.47466  3.83%  67.8    5s
* 7023  1764              46     -14.9084409  -15.47466  3.80%  67.4    5s
* 7024  1764              45     -14.9084410  -15.47466  3.80%  67.4    5s
* 7183  1819              49     -15.0201618  -15.47466  3.03%  67.3    5s
* 7635  1750              79     -15.0797539  -15.40955  2.19%  66.3    5s
* 7636  1750              79     -15.0797550  -15.40955  2.19%  66.3    5s
* 7637  1750              78     -15.0797561  -15.40955  2.19%  66.3    5s
* 7638  1750              77     -15.0797574  -15.40955  2.19%  66.3    5s
* 7639  1750              76     -15.0797588  -15.40955  2.19%  66.3    5s
H 8362  1732                     -15.0857511  -15.35900  1.81%  66.0    5s
* 8963  1838              39     -15.1253868  -15.32702  1.33%  64.8    6s
* 8966  1838              41     -15.1255243  -15.32702  1.33%  64.8    6s
* 8968  1838              42     -15.1255625  -15.32702  1.33%  64.8    6s
* 8977  1838              42     -15.1255636  -15.32702  1.33%  64.7    6s
* 9078  1815              62     -15.1276321  -15.32702  1.32%  64.5    6s
* 9389  1815              60     -15.1535877  -15.32702  1.14%  64.1    6s
*10119  2200              56     -15.1544001  -15.27265  0.78%  62.1    6s
*10203  2200              54     -15.1670647  -15.27265  0.70%  61.7    6s
*10386  2200              48     -15.1722176  -15.27265  0.66%  60.9    6s
*10587  2200              56     -15.1807642  -15.27265  0.61%  60.1    6s
*11206  2302              49     -15.1809467  -15.25313  0.48%  58.0    6s
*11211  2302              51     -15.1809467  -15.25313  0.48%  58.0    6s
*11213  2302              52     -15.1809468  -15.25313  0.48%  57.9    6s
*11470  2302              45     -15.1824523  -15.25313  0.47%  57.0    6s
*11702  2302              82     -15.1907996  -15.25313  0.41%  56.2    6s
*11706  2302              83     -15.1908002  -15.25313  0.41%  56.2    6s
*11708  2302              82     -15.1908009  -15.25313  0.41%  56.2    6s
*13141   589              66     -15.1910901  -15.25313  0.41%  56.7    7s
*13202   552              68     -15.1910909  -15.25313  0.41%  56.8    7s
*13203   525              68     -15.1910909  -15.25313  0.41%  56.8    7s
*13265   480              68     -15.1910909  -15.25313  0.41%  56.8    7s
 17415   441     cutoff   25       -15.19109  -15.25313  0.41%  60.7   10s
*19159   250              62     -15.1910962  -15.25313  0.41%  60.8   10s
*19162   250              62     -15.1911104  -15.25313  0.41%  60.8   10s
*19293   250              62     -15.1915470  -15.25313  0.41%  60.6   10s
*19343   732              76     -15.1915977  -15.25313  0.41%  60.6   10s
*19349   732              78     -15.1916010  -15.25313  0.41%  60.6   10s
*19352   732              79     -15.1916020  -15.25313  0.41%  60.6   10s
*19354   732              80     -15.1916024  -15.25313  0.40%  60.5   10s
*19356   732              78     -15.1916038  -15.25313  0.40%  60.5   10s
*19392   732              74     -15.1943688  -15.25313  0.39%  60.4   10s
*19691   732              71     -15.1970810  -15.25313  0.37%  59.8   10s
*19697   732              76     -15.1971087  -15.25313  0.37%  59.8   10s
*20341  1233              66     -15.1974505  -15.25313  0.37%  58.2   11s
*20343  1233              67     -15.1974591  -15.25313  0.37%  58.2   11s
*20397  1233              70     -15.1993577  -15.25313  0.35%  58.1   11s
*20398  1233              69     -15.1993586  -15.25313  0.35%  58.1   11s
*20410  1233              77     -15.1994641  -15.25313  0.35%  58.1   11s
*20922  1233              69     -15.2020598  -15.25215  0.33%  56.9   11s
*21504  1648              68     -15.2056697  -15.22573  0.13%  55.5   11s
*22401  1648              72     -15.2060593  -15.20745  0.01%  53.5   11s
*22503  1648              69     -15.2060909  -15.20745  0.01%  53.3   11s

Explored 22822 nodes (1200866 simplex iterations) in 11.22 seconds
Thread count was 32 (of 72 available processors)

Solution count 10: -15.2061 -15.2061 -15.2057 ... -15.1971

Optimal solution found (tolerance 1.00e-04)
Best objective -1.520609093289e+01, best bound -1.520745453112e+01, gap 0.0090%

User-callback calls 47035, time in user-callback 0.02 sec



objective value: -15.20609093288503
objective bound: -15.207454531121158
x_opt: [0.0, 0.23126035259827335, 1.0, 1.0, 0.7899672202795407, 1.0, 0.7883739523756671, 0.9997986232518158, 0.5967323420399149, 0.0, 0.9932725231992187, 0.0, 0.0, 1.0, 1.0, 1.0, 1.0, 1.0, 0.0, 0.0, 2.3091349011702886e-5, 2.9607299141619575e-6, 1.0, 1.0, 0.46307562182275014, 0.0, 1.0, 0.0, 0.0, 0.7607885576348962, 0.0, 1.0, 0.8264341418924517, 0.9995880297075901, 1.0, 0.624532321843283, 1.0, 5.501391297423805e-6, 1.0, 1.0, 0.0, 0.0007622911593499494, 0.0, 0.9987525664167193, 0.0, 1.0, 0.0, 1.0, 0.0, 1.0]
GUROBI solution time: 11.21680998802185

